data;


param d:= 100;
param r:=5;
param p:=0.800000;
param M:=1000;
param U:=
         1         1        4.675293e-01
         2         1        3.929482e-01
         3         1       -9.477625e-01
         4         1        2.236436e-01
         5         1       -1.191182e+00
         6         1       -3.200621e-01
         7         1        1.329160e+00
         8         1       -7.005641e-01
         9         1        8.461038e-01
        10         1        1.098866e+00
        11         1        6.068570e-01
        12         1        6.238002e-01
        13         1        3.907567e-01
        14         1        1.451684e+00
        15         1       -8.766629e-01
        16         1       -1.047260e+00
        17         1        7.778790e-01
        18         1        6.217470e-01
        19         1        3.184343e-01
        20         1       -7.150178e-02
        21         1       -6.973961e-01
        22         1        4.358639e-01
        23         1       -1.062168e+00
        24         1        2.280655e-01
        25         1       -8.980334e-01
        26         1       -1.251018e+00
        27         1        1.494623e+00
        28         1       -5.035499e-01
        29         1       -3.509554e-01
        30         1       -4.631605e-01
        31         1        6.134962e-01
        32         1       -3.999126e-01
        33         1        6.091221e-01
        34         1       -6.841085e-01
        35         1        3.323934e-01
        36         1       -3.902953e-01
        37         1       -6.084762e-01
        38         1       -9.479310e-01
        39         1        1.714392e+00
        40         1       -1.641396e+00
        41         1       -2.257335e-01
        42         1       -1.196948e+00
        43         1        4.097229e+00
        44         1       -6.640736e-01
        45         1        2.128901e+00
        46         1       -1.142582e+00
        47         1       -1.125045e+00
        48         1       -1.319088e+00
        49         1        1.896710e+00
        50         1       -4.225245e-01
        51         1        8.923045e-01
        52         1        1.517006e+00
        53         1        7.976731e-01
        54         1        8.019581e-01
        55         1       -1.636935e+00
        56         1        2.668400e-01
        57         1       -7.680080e-01
        58         1       -8.528261e-02
        59         1        2.228125e-01
        60         1        8.870541e-01
        61         1       -6.364204e-02
        62         1       -9.833488e-01
        63         1       -3.188747e-01
        64         1       -7.527499e-01
        65         1        2.394184e-01
        66         1        4.048045e-01
        67         1       -2.613612e-01
        68         1       -3.379547e-01
        69         1       -1.345946e+00
        70         1        3.735147e-02
        71         1        5.084620e-01
        72         1        1.078052e+00
        73         1        1.821555e+00
        74         1       -6.088269e-01
        75         1        4.261989e-01
        76         1        3.322938e-01
        77         1       -2.756490e-02
        78         1       -9.997337e-01
        79         1        2.427859e-01
        80         1        4.188732e-01
        81         1       -1.336508e+00
        82         1       -5.598408e-01
        83         1       -1.952344e+00
        84         1        5.030543e-01
        85         1       -1.328977e+00
        86         1       -2.956147e-01
        87         1        1.665257e+00
        88         1       -4.220519e-01
        89         1        1.966995e+00
        90         1       -1.378039e-01
        91         1       -7.234532e-03
        92         1        9.989469e-01
        93         1        9.242078e-01
        94         1       -8.223809e-01
        95         1       -2.812903e-01
        96         1       -7.256459e-01
        97         1        1.173940e+00
        98         1       -1.239093e+00
        99         1        6.298514e-01
       100         1        9.673826e-01
         1         2        1.297755e+00
         2         2       -2.063138e-01
         3         2        5.211368e-01
         4         2       -2.381371e-01
         5         2       -4.745287e-01
         6         2        2.202304e+00
         7         2        8.428040e-01
         8         2        1.029613e+00
         9         2       -6.634446e-01
        10         2       -2.159436e-01
        11         2       -3.737922e-01
        12         2       -1.901255e+00
        13         2        1.133589e+00
        14         2       -6.324245e-01
        15         2        2.999969e-04
        16         2       -5.541174e-01
        17         2       -1.143547e+00
        18         2       -3.161969e-01
        19         2       -6.255010e-01
        20         2       -1.162763e+00
        21         2       -1.134280e-01
        22         2        1.428999e+00
        23         2       -6.057241e-01
        24         2       -8.637421e-02
        25         2       -1.859209e+00
        26         2        6.093311e-01
        27         2        1.257084e+00
        28         2        3.798463e-01
        29         2       -1.086967e+00
        30         2       -3.876293e-01
        31         2       -1.060451e-01
        32         2       -1.029222e+00
        33         2        2.099458e+00
        34         2       -2.608164e-01
        35         2        1.116302e+00
        36         2       -7.582391e-01
        37         2        5.976035e-01
        38         2       -1.584499e+00
        39         2        4.690483e-02
        40         2       -2.063719e-01
        41         2        1.858811e+00
        42         2        3.761510e-01
        43         2       -1.437188e+00
        44         2        2.089229e+00
        45         2       -1.220261e+00
        46         2        4.600215e-01
        47         2       -1.924229e-01
        48         2        1.705288e+00
        49         2       -1.316911e+00
        50         2        2.562924e-01
        51         2        4.855610e-01
        52         2        1.179249e-01
        53         2        1.057751e+00
        54         2        3.197156e-01
        55         2       -7.107426e-01
        56         2        4.565721e-01
        57         2        3.762931e-01
        58         2       -1.760840e+00
        59         2        1.238201e+00
        60         2        1.806990e-01
        61         2        1.498464e+00
        62         2        5.371813e-01
        63         2       -4.267374e-01
        64         2        7.072225e-01
        65         2        8.948504e-01
        66         2        6.694659e-01
        67         2        1.104362e+00
        68         2       -4.374655e-02
        69         2       -7.182054e-01
        70         2        6.516219e-01
        71         2       -4.144561e-01
        72         2        8.590047e-01
        73         2        7.543715e-01
        74         2       -4.193131e-01
        75         2       -7.544307e-01
        76         2        1.296045e+00
        77         2       -1.161367e+00
        78         2        4.686687e-01
        79         2        8.861593e-01
        80         2        1.022400e+00
        81         2        9.986458e-01
        82         2        6.981421e-02
        83         2        2.786597e-01
        84         2       -1.469063e+00
        85         2       -2.517025e-02
        86         2       -1.117643e-01
        87         2        1.313812e+00
        88         2        1.448398e+00
        89         2       -1.559397e+00
        90         2        1.216241e+00
        91         2       -4.813771e-01
        92         2       -1.222253e+00
        93         2       -3.402105e-01
        94         2       -1.999851e-01
        95         2        1.656709e-01
        96         2        1.077361e+00
        97         2       -4.386252e-01
        98         2       -1.577859e-01
        99         2       -1.262093e+00
       100         2       -1.072330e+00
         1         3        1.026304e+00
         2         3        3.275679e-01
         3         3       -2.859892e+00
         4         3        8.260285e-01
         5         3       -3.374997e-01
         6         3       -1.134520e+00
         7         3        6.463344e-02
         8         3       -5.607561e-01
         9         3       -1.953310e-01
        10         3        1.347415e+00
        11         3       -7.821070e-02
        12         3       -7.658902e-01
        13         3        2.171931e+00
        14         3       -1.273728e+00
        15         3       -8.034535e-01
        16         3        3.102606e-01
        17         3       -1.194798e+00
        18         3       -9.276015e-01
        19         3        6.865668e-01
        20         3       -1.812373e+00
        21         3        1.155050e-01
        22         3       -2.402595e+00
        23         3        3.890944e-02
        24         3       -1.183231e+00
        25         3       -1.358480e-01
        26         3        3.208119e-01
        27         3        1.664404e-01
        28         3       -4.986203e-02
        29         3       -3.321512e-01
        30         3        1.433307e+00
        31         3        8.513158e-01
        32         3        1.157576e+00
        33         3       -6.728060e-01
        34         3        1.492429e+00
        35         3       -3.443487e-01
        36         3       -5.516681e-01
        37         3       -2.525845e+00
        38         3       -4.213876e-01
        39         3        7.030601e-01
        40         3       -8.468481e-01
        41         3        5.228565e-01
        42         3       -3.925062e-01
        43         3       -7.918699e-02
        44         3        3.994180e-02
        45         3       -1.466913e+00
        46         3        2.409310e-01
        47         3        1.507182e-01
        48         3       -8.455649e-01
        49         3        1.737757e+00
        50         3        7.295726e-01
        51         3       -9.189183e-01
        52         3        2.373092e-01
        53         3       -5.230474e-01
        54         3        4.692953e-01
        55         3        8.124909e-01
        56         3       -4.164137e-01
        57         3       -8.924403e-01
        58         3        1.460358e+00
        59         3       -6.569201e-01
        60         3       -2.690754e-01
        61         3        5.149158e-01
        62         3        4.603732e-01
        63         3       -4.700226e-02
        64         3       -5.260946e-01
        65         3       -8.789105e-01
        66         3        7.467600e-01
        67         3       -5.756065e-01
        68         3        1.050902e+00
        69         3        1.970142e-01
        70         3        2.355723e+00
        71         3        3.436236e-02
        72         3       -5.663588e-01
        73         3       -2.502269e-01
        74         3       -4.131424e-01
        75         3       -9.154408e-01
        76         3       -1.442650e+00
        77         3        1.232569e-01
        78         3       -3.839771e-01
        79         3        1.104719e+00
        80         3        3.100596e-02
        81         3        1.589568e-01
        82         3        2.552055e+00
        83         3        1.887622e+00
        84         3        7.127362e-01
        85         3        3.429706e-01
        86         3        8.360557e-01
        87         3       -6.621013e-01
        88         3        1.988124e-01
        89         3        1.413868e-01
        90         3       -1.886144e-02
        91         3        7.587111e-01
        92         3       -8.398705e-01
        93         3        1.353649e+00
        94         3        9.280391e-01
        95         3       -5.023536e-01
        96         3        3.250413e-01
        97         3        7.315822e-01
        98         3        1.003762e+00
        99         3        8.774085e-01
       100         3        8.080950e-01
         1         4       -6.549114e-01
         2         4        1.979005e-01
         3         4        1.195441e+00
         4         4       -1.279564e+00
         5         4       -1.285126e+00
         6         4       -6.269078e-01
         7         4       -8.034794e-01
         8         4        2.279885e-01
         9         4        1.973955e-01
        10         4        3.787745e-02
        11         4        7.458554e-01
        12         4       -4.651068e-01
        13         4        2.923126e+00
        14         4       -2.023570e+00
        15         4       -3.458984e-01
        16         4       -2.089780e+00
        17         4       -1.307031e-01
        18         4       -2.056428e-01
        19         4        8.879182e-01
        20         4       -1.548991e+00
        21         4        3.742014e-01
        22         4        4.619959e-01
        23         4        3.960059e-01
        24         4        5.296797e-01
        25         4        1.526797e+00
        26         4        1.890850e+00
        27         4       -1.272614e+00
        28         4        1.219295e+00
        29         4        9.517846e-01
        30         4        8.793330e-02
        31         4        6.749539e-02
        32         4       -1.022902e+00
        33         4        1.019220e+00
        34         4        3.071871e-01
        35         4        3.119069e-01
        36         4       -1.146393e+00
        37         4       -1.402262e-01
        38         4        6.658665e-01
        39         4       -8.105803e-01
        40         4       -1.461662e+00
        41         4       -2.825460e-01
        42         4       -2.656251e-01
        43         4       -2.552204e-01
        44         4        1.271160e+00
        45         4        3.042912e-01
        46         4        3.324385e-01
        47         4        9.582952e-01
        48         4        6.857564e-01
        49         4       -1.199106e+00
        50         4        1.486520e+00
        51         4        6.645195e-01
        52         4        9.512662e-01
        53         4       -2.414134e+00
        54         4       -6.962845e-02
        55         4        8.779522e-01
        56         4        1.846110e+00
        57         4        4.478192e-01
        58         4        2.316060e-01
        59         4       -1.111050e+00
        60         4       -2.180894e+00
        61         4        8.913526e-01
        62         4        1.113362e+00
        63         4       -1.510337e+00
        64         4       -1.360757e+00
        65         4        5.251200e-01
        66         4       -7.639191e-01
        67         4       -1.154743e+00
        68         4       -4.670845e-01
        69         4       -7.370418e-01
        70         4        4.815038e-01
        71         4       -9.698074e-02
        72         4        7.968429e-01
        73         4        1.115019e-01
        74         4       -7.883286e-01
        75         4       -3.198453e-01
        76         4        6.447907e-01
        77         4       -1.437798e+00
        78         4        2.347866e-01
        79         4       -4.827281e-01
        80         4       -9.007653e-01
        81         4       -5.584741e-01
        82         4       -9.082109e-01
        83         4       -1.499056e+00
        84         4       -2.821721e-01
        85         4        1.401874e+00
        86         4       -6.582597e-01
        87         4       -5.171084e-01
        88         4       -2.020417e-01
        89         4        1.480636e+00
        90         4       -9.288097e-02
        91         4       -1.940261e+00
        92         4        7.303615e-01
        93         4       -1.093046e+00
        94         4        4.966333e-01
        95         4        8.763595e-01
        96         4        1.644525e-01
        97         4       -2.318686e-01
        98         4        1.019354e+00
        99         4        4.285693e-02
       100         4        2.001136e-01
         1         5       -2.096219e-01
         2         5       -1.317325e+00
         3         5        6.068485e-01
         4         5        1.610713e+00
         5         5       -4.466167e-01
         6         5       -1.616598e+00
         7         5       -1.886499e-01
         8         5        1.344022e+00
         9         5       -2.137813e+00
        10         5        9.770117e-02
        11         5        1.066153e-01
        12         5       -6.264820e-02
        13         5       -1.628460e+00
        14         5       -1.092074e+00
        15         5       -1.278691e+00
        16         5       -5.584413e-01
        17         5       -1.074558e+00
        18         5        1.028489e+00
        19         5       -1.156257e+00
        20         5       -1.254136e-01
        21         5       -1.839151e-01
        22         5        6.467389e-01
        23         5        7.006365e-01
        24         5       -7.968850e-01
        25         5        1.813997e-01
        26         5       -1.057572e+00
        27         5       -1.399993e+00
        28         5       -1.440088e+00
        29         5       -3.970735e-01
        30         5        7.125092e-01
        31         5        2.269337e-01
        32         5       -4.297856e-02
        33         5       -9.941175e-01
        34         5        1.182069e+00
        35         5       -2.153539e+00
        36         5       -1.446089e-02
        37         5       -9.058518e-01
        38         5        1.790005e+00
        39         5        9.256168e-01
        40         5       -1.399032e+00
        41         5        6.481430e-01
        42         5       -1.330888e+00
        43         5        8.854749e-01
        44         5        4.242965e-01
        45         5        1.021909e+00
        46         5        1.613192e+00
        47         5        9.461632e-01
        48         5       -1.228430e-01
        49         5       -5.760372e-01
        50         5        1.273438e-01
        51         5        9.364678e-01
        52         5        1.725202e-01
        53         5        2.172776e-02
        54         5       -4.215034e-02
        55         5        5.008923e-01
        56         5        6.995309e-01
        57         5       -1.340585e+00
        58         5        3.909098e-01
        59         5        2.242758e-01
        60         5        2.983488e-01
        61         5        4.182107e-01
        62         5        1.108971e-01
        63         5       -1.928522e+00
        64         5        3.216734e-01
        65         5       -8.408252e-01
        66         5        8.524465e-01
        67         5       -1.649458e+00
        68         5       -9.334851e-02
        69         5       -4.712656e-01
        70         5       -1.279116e+00
        71         5       -6.070072e-02
        72         5        1.642429e+00
        73         5       -7.168803e-01
        74         5        9.281564e-02
        75         5        7.786044e-01
        76         5       -9.955921e-01
        77         5       -1.267968e+00
        78         5       -9.883438e-02
        79         5        4.345943e-01
        80         5        5.865304e-01
        81         5        9.452184e-01
        82         5        3.141246e-02
        83         5        1.648525e+00
        84         5       -8.082109e-01
        85         5       -1.064337e+00
        86         5        8.356662e-01
        87         5       -5.370953e-01
        88         5       -7.250808e-01
        89         5        3.658870e-01
        90         5       -1.841287e+00
        91         5        1.242150e+00
        92         5        1.342865e+00
        93         5        1.188137e-01
        94         5       -7.758867e-02
        95         5        3.739509e-01
        96         5        2.813897e-01
        97         5        1.432655e+00
        98         5       -9.484368e-01
        99         5        1.589133e+00
       100         5        4.397862e-02
;

param theta:=
    1        3.014382e-02
    2       -6.585310e-01
    3        4.757629e-01
    4       -4.604292e-01
    5        9.507123e-01
;
param X_true:=
    1       -2.492592e-01
    2       -1.039192e+00
    3       -1.706155e+00
    4        2.676207e+00
    5        2.826336e-01
    6       -3.247518e+00
    7       -2.934564e-01
    8        2.067372e-01
    9       -1.755206e+00
   10        8.918445e-01
   11       -1.341774e-02
   12        1.061500e+00
   13       -2.594577e+00
   14       -2.521645e-01
   15       -1.464257e+00
   16        9.113937e-01
   17       -7.546097e-01
   18        8.582028e-01
   19       -7.604811e-01
   20        4.951522e-01
   21       -2.382831e-01
   22       -1.670485e+00
   23        8.684914e-01
   24       -1.501386e+00
   25        6.025145e-01
   26       -2.161643e+00
   27       -1.447478e+00
   28       -2.220308e+00
   29       -2.690051e-01
   30        1.559502e+00
   31        6.770931e-01
   32        1.646325e+00
   33       -3.096717e+00
   34        1.842264e+00
   35       -3.079221e+00
   36        7.377339e-01
   37       -2.411485e+00
   38        2.210374e+00
   39        1.606962e+00
   40       -9.733831e-01
   41       -2.366125e-01
   42       -1.613856e+00
   43        1.992543e+00
   44       -1.558629e+00
   45        1.000883e+00
   46        1.157131e+00
   47        6.235597e-01
   48       -1.997926e+00
   49        1.756793e+00
   50       -3.974385e-01
   51       -1.435548e-01
   52       -1.932354e-01
   53        2.101701e-01
   54        2.908514e-02
   55        8.779601e-01
   56       -6.747327e-01
   57       -2.174934e+00
   58        2.116936e+00
   59       -3.944689e-01
   60        1.067440e+00
   61       -7.570359e-01
   62       -5.722374e-01
   63       -8.883062e-01
   64        1.942805e-01
   65       -2.041421e+00
   66        1.088639e+00
   67       -2.046122e+00
   68        6.460821e-01
   69        4.181908e-01
   70       -7.454698e-01
   71        2.909010e-01
   72        3.901917e-01
   73       -1.292900e+00
   74        5.125764e-01
   75        9.619703e-01
   76       -2.774902e+00
   77        2.769341e-01
   78       -7.225115e-01
   79        5.861795e-01
   80        3.277909e-01
   81        5.320235e-01
   82        1.599085e+00
   83        2.912984e+00
   84        6.824923e-01
   85       -1.517548e+00
   86        1.559631e+00
   87       -1.401156e+00
   88       -1.467758e+00
   89        8.191943e-01
   90       -2.520905e+00
   91        2.752797e+00
   92        1.375179e+00
   93        1.510620e+00
   94        2.468314e-01
   95       -4.042372e-01
   96       -3.833583e-01
   97        2.140553e+00
   98       -8.281204e-01
   99        2.756111e+00
  100        1.070291e+00
;
param X:=
    1       -2.492592e-01
    2       -2.486861e-01
    3       -2.045851e-01
    4       -1.013327e+00
    5        5.344832e-01
    6       -3.247518e+00
    7        1.661374e-02
    8        2.067372e-01
    9        9.350825e-01
   10       -1.229707e-01
   11       -1.341774e-02
   12        7.570330e-01
   13       -8.353540e-01
   14       -2.521645e-01
   15       -1.956426e-01
   16        1.648393e+00
   17       -1.463185e+00
   18       -5.417282e-01
   19        9.445960e-01
   20       -1.440906e+00
   21       -1.328597e+00
   22       -7.246396e-02
   23       -7.353477e-01
   24        1.039007e+00
   25        1.535549e+00
   26       -5.577146e-01
   27       -7.922044e-01
   28        9.233176e-01
   29       -2.690051e-01
   30       -6.957758e-01
   31        6.770931e-01
   32       -1.389587e+00
   33        7.596466e-01
   34        1.842264e+00
   35       -1.205604e+00
   36        8.093667e-01
   37       -6.342642e-01
   38        6.850965e-01
   39        3.648725e-01
   40       -1.675903e+00
   41       -2.366125e-01
   42        5.902785e-01
   43        2.025812e-01
   44       -4.912987e-01
   45        1.573258e-01
   46        2.255755e+00
   47        9.538723e-01
   48       -1.997926e+00
   49       -4.807418e-01
   50       -3.974385e-01
   51       -1.435548e-01
   52       -1.453790e+00
   53        2.101701e-01
   54       -5.073301e-01
   55        1.346221e+00
   56       -2.057652e+00
   57       -1.137591e+00
   58       -1.203580e+00
   59       -6.380067e-01
   60        7.355021e-01
   61       -6.879658e-01
   62        1.840652e+00
   63       -1.766040e+00
   64       -2.578432e-01
   65        3.708771e-01
   66        1.088639e+00
   67       -1.117040e-01
   68       -3.319532e-01
   69       -1.252931e+00
   70       -1.845780e+00
   71        2.078296e+00
   72       -2.009449e-01
   73        7.065644e-01
   74        5.125764e-01
   75        9.619703e-01
   76       -7.334685e-01
   77        2.769341e-01
   78       -7.225115e-01
   79        2.970648e-01
   80       -1.532101e-01
   81       -4.952688e-02
   82        3.097891e-01
   83        8.496029e-01
   84       -1.096010e+00
   85        4.772352e-02
   86       -1.089147e+00
   87        1.007705e+00
   88       -2.988444e-01
   89       -8.112913e-01
   90       -2.520905e+00
   91       -8.216772e-02
   92        7.177817e-01
   93        1.592926e-02
   94       -9.613486e-01
   95       -7.924424e-01
   96       -8.934300e-03
   97        1.770976e+00
   98       -8.281204e-01
   99       -1.259035e-01
  100       -7.935605e-01
;
param outliervec:=
    1    0
    2    1
    3    1
    4    1
    5    1
    6    0
    7    1
    8    0
    9    1
   10    1
   11    0
   12    1
   13    1
   14    0
   15    1
   16    1
   17    1
   18    1
   19    1
   20    1
   21    1
   22    1
   23    1
   24    1
   25    1
   26    1
   27    1
   28    1
   29    0
   30    1
   31    0
   32    1
   33    1
   34    0
   35    1
   36    1
   37    1
   38    1
   39    1
   40    1
   41    0
   42    1
   43    1
   44    1
   45    1
   46    1
   47    1
   48    0
   49    1
   50    0
   51    0
   52    1
   53    0
   54    1
   55    1
   56    1
   57    1
   58    1
   59    1
   60    1
   61    1
   62    1
   63    1
   64    1
   65    1
   66    0
   67    1
   68    1
   69    1
   70    1
   71    1
   72    1
   73    1
   74    0
   75    0
   76    1
   77    0
   78    0
   79    1
   80    1
   81    1
   82    1
   83    1
   84    1
   85    1
   86    1
   87    1
   88    1
   89    1
   90    0
   91    1
   92    1
   93    1
   94    1
   95    1
   96    1
   97    1
   98    0
   99    1
  100    1
;